16456 12966 2 3 5 6 7 8 9 10 13 14 15 16 20 21 23 24 25 26 27 28 30 31 32 34 35 37 38 39 40 42 43 48 49 50 51 52 53 54 55 56 57 58 59 63 64 67 68 71 72 73 74 75 76 77 78 79 81 82 84 86 87 88 90 91 94 96 97 98 99 100 101 102 103 105 106 107 108 110 111 116 117 118 119 120 121 123 125 127 128 131 132 133 135 136 137 138 139 140 141 142 143 145 146 147 150 151 152 153 154 155 157 158 159 160 161 162 165 167 168 169 170 171 172 173 174 175 176 177 178 180 184 185 188 189 190 191 193 194 196 199 200 201 202 203 204 206 207 208 210 211 212 213 214 215 217 218 219 220 222 223 224 226 227 228 231 232 234 235 236 238 240 246 248 249 252 254 257 259 260 263 265 267 268 269 270 272 274 275 276 277 278 279 281 283 284 285 286 289 290 292 293 295 296 299 303 304 309 310 315 316 317 318 319 321 322 323 326 327 328 332 334 335 336 338 340 341 342 343 344 346 347 350 352 354 355 356 357 358 359 360 362 364 366 368 369 370 372 373 374 375 376 377 378 379 380 382 384 385 386 387 388 389 391 392 393 394 395 396 397 398 400 402 403 404 405 406 407 408 409 412 413 414 415 416 417 418 419 420 421 422 423 424 425 426 427 428 430 432 433 434 435 438 439 440 441 442 443 444 446 447 448 449 450 451 453 457 459 460 461 462 463 464 467 469 470 471 472 473 474 475 476 477 478 482 483 484 486 487 488 489 491 492 493 495 496 497 498 499 500 